 # Version information for this restart file 
 # current date 2024-11-05 14:00:40.868
 # current working dir /share/gpu1/kjoll/testing_cp2k_2024.3_apt_i-pi_interface
 # Program compiled at                              Tue 29 Oct 16:33:53 GMT 2024
 # Program compiled on                                       hypatia-login.local
 # Program compiled for                                                    local
 # Source code revision number                                       git:bbd302a
 &GLOBAL
   PRINT_LEVEL LOW
   PROJECT_NAME "apt_ipi_test"
   RUN_TYPE MD
 &END GLOBAL
 &MOTION
   &MD
     ENSEMBLE NVE
     STEPS 100
     TIMESTEP  9.9999999999999989E-001
     STEP_START_VAL 80
     TIME_START_VAL  8.0000000000000057E+001
     ECONS_START_VAL -2.2101082427165820E+003
     &AVERAGES T
       &RESTART_AVERAGES
         ITIMES_START 1
         AVECPU  4.2934419266530310E-001
         AVEHUGONIOT  0.0000000000000000E+000
         AVETEMP_BARO  0.0000000000000000E+000
         AVEPOT -2.2106248399130918E+003
         AVEKIN  5.1658514262433430E-001
         AVETEMP  2.8394167367117740E+002
         AVEKIN_QM  0.0000000000000000E+000
         AVETEMP_QM  0.0000000000000000E+000
         AVEVOL  2.5929640507955100E+004
         AVECELL_A  2.9598213501547928E+001
         AVECELL_B  2.9598213501547928E+001
         AVECELL_C  2.9598213501547928E+001
         AVEALPHA  9.0000000000000000E+001
         AVEBETA  9.0000000000000000E+001
         AVEGAMMA  9.0000000000000000E+001
         AVE_ECONS -9.6860739591990395E-003
         AVE_PRESS  0.0000000000000000E+000
         AVE_PXX  0.0000000000000000E+000
       &END RESTART_AVERAGES
     &END AVERAGES
   &END MD
   &DRIVER
     UNIX T
     PORT 8421
     HOST "/tmp/ipi_cp2k"
     SLEEP_TIME  1.0000000000000001E-001
   &END DRIVER
   &PRINT
     &TRAJECTORY SILENT
       UNIT "angstrom"
       FORMAT XMOL
       &EACH
         MD 1
       &END EACH
     &END TRAJECTORY
     &VELOCITIES ON
       &EACH
         MD 1
       &END EACH
     &END VELOCITIES
     &FORCES ON
     &END FORCES
     &RESTART_HISTORY SILENT
       &EACH
         MD 10000
       &END EACH
     &END RESTART_HISTORY
   &END PRINT
 &END MOTION
 &MULTIPLE_FORCE_EVALS
   FORCE_EVAL_ORDER 1..3
   MULTIPLE_SUBSYS T
 &END MULTIPLE_FORCE_EVALS
 &FORCE_EVAL
   METHOD MIXED
   &MIXED
     MIXING_TYPE GENMIX
     GROUP_PARTITION 16 1
     NGROUPS 2
     &GENERIC
       MIXING_FUNCTION a+b
       VARIABLES "a" "b"
     &END GENERIC
   &END MIXED
   &SUBSYS
     &CELL
       A  1.5662700000000001E+001  0.0000000000000000E+000  0.0000000000000000E+000
       B  0.0000000000000000E+000  1.5662700000000001E+001  0.0000000000000000E+000
       C  0.0000000000000000E+000  0.0000000000000000E+000  1.5662700000000001E+001
       MULTIPLE_UNIT_CELL 1 1 1
     &END CELL
     &COORD
       O  5.8986511576260128E+001  6.7040129751025873E+001 -3.9743037353750715E+001
       H  5.8311159377547924E+001  6.6411736027999552E+001 -3.9558704101699838E+001
       H  5.9133454590136914E+001  6.7424995494804179E+001 -3.8833777285357669E+001
       O  7.0395686619027188E+001  1.0002903022946251E+002  6.8253492900121529E+001
       H  6.9760771389463301E+001  1.0074500929946569E+002  6.8406609758771054E+001
       H  7.0401300803551052E+001  9.9493785701577266E+001  6.9049549823216807E+001
       O  5.7405278053339202E+001  1.0928153058821900E+002  1.5821040502580439E+001
       H  5.8105175494481372E+001  1.0918655802274638E+002  1.6526992506557544E+001
       H  5.7169546880550122E+001  1.1025275674113038E+002  1.5883132989339270E+001
       O  1.7265080241938529E+002  1.0019512147081404E+002  5.5686426862702881E+001
       H  1.7328315792016258E+002  1.0054390648428790E+002  5.6390722181743058E+001
       H  1.7228354418249239E+002  9.9384112874400643E+001  5.6101455785187007E+001
       O  9.5584496723949115E+001  8.5058339819339380E+001 -1.4587001525827670E+001
       H  9.5378916051157375E+001  8.5155187706691564E+001 -1.3637662417464423E+001
       H  9.5066949358444660E+001  8.4295553087566333E+001 -1.4882513536154770E+001
       O  8.3408853846644092E+001  1.3703166915582349E+002 -1.5195648579332794E+001
       H  8.2497637615001736E+001  1.3675424787504275E+002 -1.5356394035254352E+001
       H  8.3713328868344732E+001  1.3641423794215146E+002 -1.4536735774544447E+001
       O  9.5320341554736299E+000  1.6934579226705327E+002  1.1040787033000468E+001
       H  9.9309265872070380E+000  1.6844732849926888E+002  1.1174553527485644E+001
       H  9.7614391484518030E+000  1.6992820651130742E+002  1.1778307555245265E+001
       O  3.9593314455812362E+001  1.5449965993809778E+002  8.3401974020234550E-003
       H  4.0333897158874237E+001  1.5519219077018371E+002  1.2458981024859354E-001
       H  3.8910522414326806E+001  1.5459602825576678E+002  6.9953929000173565E-001
       O  1.0113165682081059E+002  1.6104071012080945E+002  3.5580490536317919E+000
       H  1.0032494583947764E+002  1.6042742769737774E+002  3.8376650771624621E+000
       H  1.0115592360077966E+002  1.6176118112268287E+002  4.2210877545789591E+000
       O  9.0275338737737115E+001  2.2362619214591527E+002  5.0236043574675136E+001
       H  8.9449394680555784E+001  2.2408409727781455E+002  5.0610578529577381E+001
       H  9.0347711379997264E+001  2.2274377075301632E+002  5.0678827506495928E+001
       O  7.4531634910838477E+001  1.6488492081330341E+002 -1.2609904704235335E+001
       H  7.3620274935029897E+001  1.6459526522149892E+002 -1.2383422566945043E+001
       H  7.5130393714047869E+001  1.6417885388618248E+002 -1.2179336773533773E+001
       O  4.3966632420988077E+001  8.9527100212270099E+001 -9.7398403943419538E+000
       H  4.4225325783898249E+001  9.0311245496220636E+001 -9.2322718381157749E+000
       H  4.3027558911074578E+001  8.9380592035162152E+001 -9.3956404929451853E+000
       O  8.5711251316729733E+000  1.9632119725141354E+002  1.8033384201747548E+001
       H  7.6805503134011639E+000  1.9621073735986022E+002  1.8255861748048400E+001
       H  8.9710524802022711E+000  1.9688874034440283E+002  1.8742662748163756E+001
       O  9.8281293734502498E+001  2.2389270363410179E+002  6.4331363236793146E+000
       H  9.7285490086496779E+001  2.2392608593558788E+002  6.3766771225748533E+000
       H  9.8390002302865895E+001  2.2433684914171872E+002  7.3332555305478664E+000
       O  5.3232691049674983E+001  1.2478349576570926E+002 -1.3537385306409460E+000
       H  5.3102037336069237E+001  1.2553950719968246E+002 -7.5996135399922349E-001
       H  5.3870281516422843E+001  1.2416898476063302E+002 -9.3720594135587609E-001
       O  8.9995497797465603E+001  1.7417590388740550E+002 -1.7822284863667981E+001
       H  9.0444226673044966E+001  1.7365676132074702E+002 -1.7133227140123598E+001
       H  8.9727060902451726E+001  1.7358705078979233E+002 -1.8607172148883585E+001
       O  4.5121453666807483E+001  1.0911200244805728E+002  2.8704003563831556E+001
       H  4.4510433096478408E+001  1.0835400328270666E+002  2.8933523388731739E+001
       H  4.5931592620868052E+001  1.0860573317646866E+002  2.8885097660822986E+001
       O  5.0582833084649970E+001  1.7009232282652985E+002  1.9208061479939026E+001
       H  5.1116914842766377E+001  1.7084592944421885E+002  1.9726625546309883E+001
       H  5.0042371817641374E+001  1.6984254942067685E+002  2.0004302387922426E+001
       O  9.9837862532558901E+001  1.2049529187374596E+002  2.8813109523023940E+001
       H  9.9919747863053217E+001  1.2080089232008206E+002  2.9747715952049344E+001
       H  1.0011281245425526E+002  1.2133450787477807E+002  2.8254641146415015E+001
       O  6.9394977762773522E+001  1.0681537434280891E+002  1.0519700767352755E+002
       H  6.9327730571554156E+001  1.0772800091370576E+002  1.0549674412493323E+002
       H  7.0315562169397779E+001  1.0672137646320326E+002  1.0500513739664697E+002
       O  3.1750214539368059E+001  1.2384510560833085E+002  1.6439924872313636E+001
       H  3.2372533609402339E+001  1.2459976943881027E+002  1.6569970222619020E+001
       H  3.1454965346556957E+001  1.2387823318263955E+002  1.5518132021383712E+001
       O  3.5314088314243321E+001  1.1391963048282854E+002 -4.6580492247003839E+001
       H  3.4640637326328871E+001  1.1420767137365840E+002 -4.5945252986964086E+001
       H  3.4973364799832929E+001  1.1298679460992415E+002 -4.6738160269552957E+001
       O  7.2681569195626011E+001  1.5099750517922106E+002  5.8213548284564510E+001
       H  7.2794263744894636E+001  1.5055039352759081E+002  5.9146758962348770E+001
       H  7.3431338133354302E+001  1.5060269811055221E+002  5.7766665286743667E+001
       O  1.0293817268337044E+001  1.4024260728569817E+002  1.2436370612443794E+001
       H  1.0533441051976771E+001  1.4002949046255409E+002  1.3356266426382817E+001
       H  9.5125467696519017E+000  1.4090378587374315E+002  1.2504742854500659E+001
       O  4.7441960180015812E+001  1.1972278587393144E+002  9.1562594265912765E+000
       H  4.7001925231501389E+001  1.1953482642079365E+002  9.9633913822188962E+000
       H  4.8302363110003085E+001  1.1920522547259922E+002  9.2756259057993660E+000
       O  1.4507439956563211E+001  1.0924971134512940E+002 -5.6210508006776232E+000
       H  1.5109782252171001E+001  1.1006664915042643E+002 -5.8038197165888432E+000
       H  1.4478376554355208E+001  1.0902477992959675E+002 -4.6472360569024111E+000
       O  1.4193098727168643E+002  1.3287619720429606E+002 -6.4626446616397232E+001
       H  1.4159005732039441E+002  1.3369029086143993E+002 -6.4257052352580658E+001
       H  1.4132364184932632E+002  1.3268280408590272E+002 -6.5372393674719774E+001
       O  3.7320622746321874E+001  1.2625029522961482E+002 -3.0344224124327688E+001
       H  3.7759490693812957E+001  1.2712700578246779E+002 -3.0177060597200576E+001
       H  3.7241567032553220E+001  1.2570664135437579E+002 -2.9550475741111686E+001
       O  7.4858066473378514E+001  1.3785392441190720E+002  2.8790366126797210E+001
       H  7.5331592868862117E+001  1.3706906635514045E+002  2.9142979676737149E+001
       H  7.4804242081896220E+001  1.3772605889419057E+002  2.7783938864360113E+001
       O  8.6154337774279497E+001  1.3541311187707072E+002  6.9850816187894642E+000
       H  8.6085273484347624E+001  1.3492517600513500E+002  7.9365588337013797E+000
       H  8.5854792769968810E+001  1.3631298953205933E+002  6.9172497188784652E+000
       O  4.4596860932605495E+001  1.5726585104340478E+002  5.2924225099010137E+001
       H  4.4072736915875005E+001  1.5708943308068982E+002  5.3752601347071106E+001
       H  4.4970771763213961E+001  1.5821400670943237E+002  5.3038731003169758E+001
       O  1.6001489283692436E+001  1.3004892014485205E+002 -5.6025578025843703E-001
       H  1.6080261969156741E+001  1.2907505488882475E+002 -7.1398183983023533E-001
       H  1.6162555088245394E+001  1.3043934747958281E+002 -1.4393885294980315E+000
       O  1.0823584299486014E+002  1.1301548104837886E+002  2.1793939235121506E+001
       H  1.0757274785018944E+002  1.1357134760244189E+002  2.2236566233081586E+001
       H  1.0910032432478143E+002  1.1350477696060869E+002  2.1878347764194494E+001
       O  6.4915822343012266E+001  1.1932522114047798E+002 -1.3134402472167293E+001
       H  6.5587837855111886E+001  1.1869200867969447E+002 -1.3148857359453796E+001
       H  6.4549083011041489E+001  1.1932274008347449E+002 -1.2208405724325830E+001
       O  8.8851778290804461E+001  1.3479477842646818E+002 -1.6301698332966932E+000
       H  8.8055536880148111E+001  1.3528890883375320E+002 -1.2640694970903388E+000
       H  8.8723772764878561E+001  1.3390780592836407E+002 -1.2817032855253341E+000
       O  4.7420280994017304E+001  1.8313287175355160E+002  2.9915467040693663E+001
       H  4.8167481906972490E+001  1.8347957917126806E+002  3.0472664834513996E+001
       H  4.6784811119719478E+001  1.8297583491422799E+002  3.0643951085908956E+001
       O  1.2253885607304026E+002  1.7263483377059106E+002  4.8586753745725701E+001
       H  1.2330999746934212E+002  1.7309060498202658E+002  4.8221188088785524E+001
       H  1.2285844802459756E+002  1.7184089549915211E+002  4.9070927110217546E+001
       O  1.2621576009017953E+002  1.7742004503807146E+002 -8.1875767389595012E+001
       H  1.2562955852099626E+002  1.7725012133173169E+002 -8.2602362275112569E+001
       H  1.2695558471482845E+002  1.7683071361316317E+002 -8.2055058927195461E+001
       O  2.8326586660487116E+001  1.4487669135990257E+002  1.6422919906564236E+001
       H  2.8498610746640843E+001  1.4584341935767824E+002  1.6203277288301898E+001
       H  2.8063704252171672E+001  1.4505331608906189E+002  1.7304813462899109E+001
       O  9.3834748515930627E+001  1.0552557287660245E+002  5.8589496504063760E+001
       H  9.3928250901217723E+001  1.0537014961694413E+002  5.9592331719635304E+001
       H  9.4720022380209457E+001  1.0590139893997643E+002  5.8302257898033012E+001
       O  1.1208898289569623E+002  1.5659375242397869E+002  3.3250706040722221E+001
       H  1.1191402865501711E+002  1.5716730062805993E+002  3.4097294244398974E+001
       H  1.1249513279108142E+002  1.5575571837352825E+002  3.3545938839121170E+001
       O  6.5829400237512900E+001  1.5511043732012459E+002  7.6598291107631411E+000
       H  6.6562269509254691E+001  1.5481598017229902E+002  8.2388900180734268E+000
       H  6.5068361734034255E+001  1.5507037741215356E+002  8.2160073934401776E+000
       O  3.8264849266080489E+001  9.4670096433857196E+001  4.1334425319132052E+001
       H  3.7470819289348768E+001  9.4403249479037896E+001  4.1813031819921953E+001
       H  3.8877191276876552E+001  9.4806724204433721E+001  4.2078330079447248E+001
       O  8.4818860360078176E+001  1.1302255132858114E+002  9.4573988784461207E+000
       H  8.5148380925215250E+001  1.1365617564011058E+002  1.0126560525536689E+001
       H  8.4922814011816541E+001  1.1213620577656944E+002  9.7816150493994254E+000
       O  8.6725471980526962E+001  1.2017958883518153E+002  3.0918259233144646E+001
       H  8.6684108038805974E+001  1.2114666389955605E+002  3.1172493656992820E+001
       H  8.6637108662705771E+001  1.1963092722158575E+002  3.1700560707630778E+001
       O  7.9892619058587997E+001  1.2641078654354486E+002  5.1147297327503615E+001
       H  7.9357388094853519E+001  1.2563997018860741E+002  5.1423626217413073E+001
       H  8.0174112318001320E+001  1.2662410203842084E+002  5.2084312678720856E+001
       O  1.7108040749335341E+001  8.2999487139426265E+001  5.3323580208845826E+001
       H  1.7143165720277935E+001  8.3599274290168054E+001  5.2573541670383904E+001
       H  1.7067382461192185E+001  8.3548791530634276E+001  5.4168683163058652E+001
       O  1.1029745311231795E+002  1.7402044421191047E+002  9.5412636226105754E+000
       H  1.1094289092887972E+002  1.7385176020587130E+002  1.0227187375455120E+001
       H  1.1085245550088459E+002  1.7392950552557360E+002  8.7416845743515825E+000
       O  5.8864221291013564E+001  1.7261525439052090E+002  5.7308123797662688E+001
       H  5.8844827963582667E+001  1.7200258511876351E+002  5.8113280306104464E+001
       H  5.9813504396098885E+001  1.7254169681814480E+002  5.7070098049529030E+001
       O  7.5915774615745377E+001  8.8004906885235627E+001  1.4312656988411204E+001
       H  7.6328164970812963E+001  8.7917850581653795E+001  1.5178640533668885E+001
       H  7.5030790384827228E+001  8.8197899054966712E+001  1.4644281022524163E+001
       O  8.6412738774636210E+001  1.1024002118582172E+002  7.3154078855005160E+000
       H  8.6321025560766032E+001  1.0926177144504439E+002  7.3023643532202405E+000
       H  8.5844213361146330E+001  1.1044122586111375E+002  8.1248383215451696E+000
       O  1.2275036433756543E+002  1.3246069265242247E+002  7.8870163708300581E+001
       H  1.2356938847584608E+002  1.3292503613915696E+002  7.9201426661486224E+001
       H  1.2197569605953817E+002  1.3274849791682254E+002  7.9396000622014952E+001
       O  7.3796044656348485E+001  1.7966110249121073E+002 -2.4869964316372599E+001
       H  7.3149697986346538E+001  1.7938933200328788E+002 -2.4204911881414688E+001
       H  7.4641400823702966E+001  1.7928040609453043E+002 -2.4547930439271681E+001
       O  4.3659418208134554E+001  1.3138283132880960E+002  9.9075644954085416E+000
       H  4.3255782643531219E+001  1.3150220219328486E+002  1.0754030922836417E+001
       H  4.4657013572162242E+001  1.3139347317769051E+002  1.0081037550564087E+001
       O  1.3026427579958730E+002  1.2465772115730316E+002 -3.7087660652805745E+000
       H  1.3062305084605299E+002  1.2467749096434022E+002 -2.7736587546185141E+000
       H  1.2959782929257159E+002  1.2396143785963366E+002 -3.6656062777286786E+000
       O  6.9994372126128852E+001  9.7527292543382003E+001 -2.2147263208519483E+000
       H  6.9122121742872707E+001  9.7700513526566837E+001 -1.8489215409052053E+000
       H  7.0568785601245395E+001  9.8047571439396535E+001 -1.6491809545083251E+000
       O  1.2923074229820875E+002  1.6507162769213028E+002  4.7187219299384452E+001
       H  1.2973850757319241E+002  1.6492727178020931E+002  4.8017280926330692E+001
       H  1.2836031671676525E+002  1.6463621500957984E+002  4.7418928967899852E+001
       O  1.0448517697108986E+002  7.5769881144619632E+001  5.5224008429704043E+001
       H  1.0449367459982304E+002  7.5796573773993558E+001  5.6217092031579611E+001
       H  1.0470686986622422E+002  7.6676837646465387E+001  5.4941858997281869E+001
       O  8.1078878675339709E+001  1.6058037643551842E+002 -2.8303834691611307E+001
       H  8.1039423444273254E+001  1.6150662129140721E+002 -2.8090423315201875E+001
       H  8.0176392438328833E+001  1.6038540806687467E+002 -2.7970619203191877E+001
       O  4.5109083854155557E+001  1.0036495600274704E+002  1.9796148157281436E+001
       H  4.4637682446177713E+001  9.9563750956129596E+001  1.9443045651960077E+001
       H  4.5049201044518348E+001  1.0018418061428297E+002  2.0784755794935180E+001
       O  1.3022246642825763E+002  1.5153691137525252E+002  1.9850106387620656E+001
       H  1.2948769411655701E+002  1.5192722622570349E+002  1.9273842172778362E+001
       H  1.3095585230582680E+002  1.5219945435381211E+002  1.9928534421551113E+001
       O  1.7969625659527026E+001  1.4797630958150668E+002  4.2005004151594719E+001
       H  1.7434011884368292E+001  1.4756712510184920E+002  4.2727565478127786E+001
       H  1.8504981837234887E+001  1.4719319946739978E+002  4.1792917058066678E+001
       O  1.0117645857093663E+002  7.0243116293754397E+001  3.0018360924681470E+001
       H  1.0053522584289578E+002  7.0571572049431467E+001  3.0706365153473588E+001
       H  1.0107070080293494E+002  7.0949642010334628E+001  2.9336719271316195E+001
       O  7.2682201576287824E+001  1.6125351391085348E+002  1.4375916753100940E+001
       H  7.2508123781899570E+001  1.6055665921165314E+002  1.5070336342518077E+001
       H  7.2596668091719707E+001  1.6213315846315436E+002  1.4815388102006702E+001
       O  2.0648608069985347E+001  1.2824084063051825E+002  2.0022748926194524E+001
       H  1.9922500157803132E+001  1.2856302752037951E+002  1.9406766495076802E+001
       H  2.0340732246763224E+001  1.2861046353369574E+002  2.0919222533172125E+001
       O  1.0446211647456997E+002  1.2791435919255019E+002  1.0048220633692383E+001
       H  1.0360135169943460E+002  1.2762436146856879E+002  9.6496918823785851E+000
       H  1.0496669255451421E+002  1.2709143595470762E+002  1.0279995122906451E+001
       O  1.0014974715435352E+002  1.4919386469144811E+002  5.3097080929608644E+001
       H  1.0071001906674847E+002  1.4998132041239478E+002  5.3147076467529331E+001
       H  9.9629981210138538E+001  1.4923241319879145E+002  5.3889401365418429E+001
       O  1.6479309445562961E+002  1.8890839624593855E+002  1.2230841131615749E+002
       H  1.6415289262959530E+002  1.8849651953750083E+002  1.2294107371015299E+002
       H  1.6474985381316006E+002  1.8985731979638430E+002  1.2257960883579415E+002
       O  1.5808609955019958E+002  1.2238434282966200E+002  5.6618242938624270E+001
       H  1.5724840183595239E+002  1.2280765628139345E+002  5.6645388117548464E+001
       H  1.5795107215358445E+002  1.2144387996950670E+002  5.6367404373429387E+001
       O  3.8236768088910345E+001  1.4470112104326364E+002  4.8023620455150983E+001
       H  3.8506576111261623E+001  1.4514448251812479E+002  4.8852647555739686E+001
       H  3.7336969564431399E+001  1.4512075175647331E+002  4.7877830579216955E+001
       O  4.6344804288115490E+001  1.4493285606891988E+002  2.5660646662592864E+001
       H  4.6714833023089177E+001  1.4402170867474163E+002  2.5474009886772190E+001
       H  4.5713739626132238E+001  1.4480460533005368E+002  2.6378751676701494E+001
       O  6.9079594391396753E+001  1.0809366268750341E+002 -1.3444826857641573E+001
       H  6.8343159449394179E+001  1.0772382984762291E+002 -1.3891456881254790E+001
       H  6.9105358133547455E+001  1.0762871843614622E+002 -1.2619434460636535E+001
       O  8.8667068196033725E+001  1.2123838540194983E+002  1.7776054013638692E+001
       H  8.8450436069251580E+001  1.2224270298287398E+002  1.7905060971164538E+001
       H  8.9645493007597693E+001  1.2111885530693424E+002  1.7933561430162825E+001
       O  1.3641684842067835E+002  1.2547793659055326E+002  3.9081899583053428E+001
       H  1.3634775174547698E+002  1.2556139727638724E+002  4.0058954236947820E+001
       H  1.3551269443706445E+002  1.2575211878801643E+002  3.8841845590874996E+001
       O  6.9874814487680752E+001  1.3761107781715171E+002  6.7193045844426635E+001
       H  7.0642009676778258E+001  1.3702116419456374E+002  6.7048730567977941E+001
       H  7.0061422175380500E+001  1.3798246414514389E+002  6.8034421286386461E+001
       O  6.4366258309839708E+001  9.1017598526565394E+001 -1.0040538304838220E+001
       H  6.4985297664074949E+001  9.1245672658376833E+001 -9.3187281881916988E+000
       H  6.3838733355254881E+001  9.1786455254011457E+001 -1.0068689373748219E+001
       O  6.1207879180956141E+001  2.1661506080988806E+002  7.9290728937375938E+000
       H  6.0764414254901425E+001  2.1602066384901229E+002  8.5968321322311123E+000
       H  6.1276696915153863E+001  2.1743479163162439E+002  8.4685153173507377E+000
       O  8.2897725696425496E+001  1.2005755587597498E+002  3.9000471089114697E+001
       H  8.2254703664828725E+001  1.1971574834394052E+002  3.9734622258878424E+001
       H  8.2192278492814040E+001  1.2031964663844107E+002  3.8359989191982791E+001
       O  9.9505147007976106E+001  2.1631593923917222E+002 -3.8112799654963432E+001
       H  9.9298787949968585E+001  2.1540056101138697E+002 -3.8418720950578724E+001
       H  9.9832151709452262E+001  2.1610509501821909E+002 -3.7188623190021303E+001
       O  1.1379706680467511E+002  1.1605754113306094E+002 -1.1550105762340941E+001
       H  1.1432190230890306E+002  1.1540821648780440E+002 -1.1014632663317101E+001
       H  1.1334745129556437E+002  1.1669305698589561E+002 -1.0924986251368654E+001
       O  1.4022473715350154E+002  1.6623541441267949E+002 -1.4551944340723525E+001
       H  1.4091201182390873E+002  1.6571927650176210E+002 -1.4136970555498577E+001
       H  1.3975989978676890E+002  1.6670756161911316E+002 -1.3802530635673401E+001
       O  9.1213810233056464E+001  1.1529315937643359E+002  7.6396356008799629E+001
       H  9.1326310968661161E+001  1.1578399713090558E+002  7.7232192182598723E+001
       H  9.0356883951135444E+001  1.1498022624217148E+002  7.6561172521490761E+001
       O  6.7286844461497381E+001  1.6142526802645926E+002 -2.0321734906422142E+000
       H  6.7234511824972770E+001  1.6238305457825143E+002 -2.0907981931829740E+000
       H  6.6845675891878244E+001  1.6128432272866888E+002 -1.0954192283440622E+000
       O  6.5875329690875205E+001  1.6510637345719462E+002 -2.5676170932809022E+001
       H  6.5173349946345979E+001  1.6576927562800094E+002 -2.5835478237060013E+001
       H  6.6718137435359111E+001  1.6560845276844961E+002 -2.5854718283528307E+001
       O  8.2634096832177491E+001  8.3679470386599348E+001  4.0552398129078959E+001
       H  8.3278359749239428E+001  8.4322605100306774E+001  4.0980740849214001E+001
       H  8.2837034866783341E+001  8.2871315290051726E+001  4.1119238260460051E+001
       O  1.5114796190410775E+002  1.4701871760121779E+002  5.1192756892205715E+001
       H  1.5016575147158130E+002  1.4701862741428207E+002  5.1369857957647412E+001
       H  1.5151455550000759E+002  1.4722391407619486E+002  5.2065137309247248E+001
       O  5.5468062088248359E+001  8.2594569247040312E+001  7.3558746775099841E+000
       H  5.5796143537420264E+001  8.3279781360123110E+001  7.9966331598628324E+000
       H  5.4892622530771504E+001  8.2058578067950037E+001  7.8988223948403782E+000
       O  7.2288395492353601E+001  1.3183498537848385E+002  5.5595717994219882E+001
       H  7.1832740338764566E+001  1.3262550274625528E+002  5.5991734841609897E+001
       H  7.3015144155165217E+001  1.3153927259728374E+002  5.6124925175045945E+001
       O  8.2403272384536351E+001  1.7984364589949544E+002  1.3267684771238354E+001
       H  8.2519626854209420E+001  1.8017441096105858E+002  1.4192213095244803E+001
       H  8.1451283496038769E+001  1.7985718380331753E+002  1.3103202179558384E+001
       O  9.6788039172967828E+001  9.7339529076470455E+001  1.2534444440583533E+001
       H  9.6541036217911014E+001  9.6912675968097631E+001  1.3370013081238872E+001
       H  9.7549200019148543E+001  9.7898434056328767E+001  1.2828462056895354E+001
       O  9.2389478423710827E+001  1.0195343985452662E+002  7.4634877620618056E+001
       H  9.2030288125912463E+001  1.0115929171917010E+002  7.4996076623349566E+001
       H  9.2370947727674150E+001  1.0266147233792752E+002  7.5363354734878413E+001
       O  5.1104146576760854E+001  1.2743406421173894E+002  3.9932111823656989E+001
       H  5.1964224650601075E+001  1.2783237051728888E+002  4.0193331963641882E+001
       H  5.0830477801958892E+001  1.2697335320987929E+002  4.0770098454802316E+001
       O  7.0823421143290545E+001  1.1851646109323222E+002 -6.3046069885770244E+000
       H  7.1374494243309442E+001  1.1901822445302464E+002 -5.6203856282214089E+000
       H  6.9979059617812496E+001  1.1828240153611692E+002 -5.8535023344763824E+000
       O  2.9358385079515813E+001  1.2872177997920633E+002  4.3743897674338655E+001
       H  2.9207265735304585E+001  1.2949977567442099E+002  4.4246725447859966E+001
       H  2.8688241182356816E+001  1.2811922181191463E+002  4.4062584575015833E+001
       O  7.0404030361452740E+001  1.6996055510192582E+002  2.2871803978392013E+001
       H  6.9765047390198347E+001  1.7001565187003791E+002  2.3618931046097245E+001
       H  7.1333688096263174E+001  1.6990451027478204E+002  2.3250571291644853E+001
       O  9.6505288533676548E+001  1.1077632934063907E+002  3.8036687770164100E+001
       H  9.6939748025072660E+001  1.0990254297471790E+002  3.7972778081199166E+001
       H  9.7171861477500997E+001  1.1119050429703212E+002  3.8634627642801505E+001
       O  5.6252955603690182E+001  1.6723215657641137E+002  4.1630689193372215E+000
       H  5.6913993183199025E+001  1.6715280186097945E+002  4.8854883366556408E+000
       H  5.6723493698124869E+001  1.6774644301321064E+002  3.3848529945787673E+000
       O  1.0381572121211615E+002  6.1318245684152920E+001  5.0367834325429939E+001
       H  1.0287582029859603E+002  6.1421248128785429E+001  5.0549823265787118E+001
       H  1.0413557913753559E+002  6.2203624317473022E+001  5.0437182457809833E+001
       O  1.0552226682580977E+002  1.4232949587457739E+002 -1.1834400438808311E+001
       H  1.0604836956435861E+002  1.4211836520951209E+002 -1.2660901095151871E+001
       H  1.0613648875947068E+002  1.4206097530319258E+002 -1.1113467296098451E+001
       O  5.9902521998094080E+001  1.9876296097338800E+002 -1.2761960824150821E+001
       H  5.9443161505697063E+001  1.9787252179665759E+002 -1.2798756599875606E+001
       H  5.9981024619784250E+001  1.9892402743213819E+002 -1.1781855881022999E+001
       O  9.1497018618687378E+001  1.5272772466193751E+002  1.0284150239749588E+001
       H  9.1098107245307830E+001  1.5191718164852824E+002  1.0011611084020995E+001
       H  9.2281871056756287E+001  1.5248314855694156E+002  1.0793030382620122E+001
       O  4.7922226825487940E+001  1.3989816025966033E+002  7.5824228821521672E+001
       H  4.8661017116462737E+001  1.3939380848521850E+002  7.5440316877010474E+001
       H  4.7953037043979087E+001  1.4086218880035543E+002  7.5610253725186553E+001
       O  8.0539723400768210E+001  1.3699441465991126E+002 -1.5086059053498321E+001
       H  8.0670704999117831E+001  1.3624912525756781E+002 -1.4440171369213330E+001
       H  7.9958977144982370E+001  1.3773453255073102E+002 -1.4764721915438486E+001
       O  7.9172212907957189E+001  1.9435531633999642E+002  4.0267040236962268E+000
       H  7.8185906134833431E+001  1.9445785069746151E+002  4.1400569300222303E+000
       H  7.9588006044792181E+001  1.9510158478777342E+002  4.4567048724538374E+000
       O  7.7470037227795615E+001  1.9001946814420131E+002  6.3532274027006572E+001
       H  7.7949262933296453E+001  1.8999871520457819E+002  6.4391169847652151E+001
       H  7.6875755140400983E+001  1.9077245454930105E+002  6.3589426980164802E+001
       O  6.2569608264017731E+001  1.2848099778586058E+002  3.4873869685545920E+001
       H  6.2229651683774001E+001  1.2858714109004754E+002  3.5772746491913090E+001
       H  6.3170250505075074E+001  1.2772866939778159E+002  3.5133615573249088E+001
       O  4.5289041867330944E+001  1.3237889375012475E+002  6.9568091305326494E+000
       H  4.6045066513210145E+001  1.3208231509060352E+002  7.5513246548122988E+000
       H  4.5526174876286440E+001  1.3328873784980848E+002  6.8612122244409806E+000
       O  9.7474578217692581E+001  1.8264940609994591E+002  7.5094865086948460E+001
       H  9.8483283047497395E+001  1.8277589710673672E+002  7.5353679884493673E+001