 # Version information for this restart file 
 # current date 2024-11-05 14:00:44.157
 # current working dir /share/gpu1/kjoll/testing_cp2k_2024.3_apt_i-pi_interface
 # Program compiled at                              Tue 29 Oct 16:33:53 GMT 2024
 # Program compiled on                                       hypatia-login.local
 # Program compiled for                                                    local
 # Source code revision number                                       git:bbd302a
 &GLOBAL
   PRINT_LEVEL LOW
   PROJECT_NAME "apt_ipi_test"
   RUN_TYPE MD
 &END GLOBAL
 &MOTION
   &MD
     ENSEMBLE NVE
     STEPS 100
     TIMESTEP  9.9999999999999989E-001
     STEP_START_VAL 100
     TIME_START_VAL  1.0000000000000007E+002
     ECONS_START_VAL -2.2101082427165820E+003
     &AVERAGES T
       &RESTART_AVERAGES
         ITIMES_START 1
         AVECPU  3.7636622342281045E-001
         AVEHUGONIOT  0.0000000000000000E+000
         AVETEMP_BARO  0.0000000000000000E+000
         AVEPOT -2.2106241031288896E+003
         AVEKIN  5.1634195329527177E-001
         AVETEMP  2.8380800435044875E+002
         AVEKIN_QM  0.0000000000000000E+000
         AVETEMP_QM  0.0000000000000000E+000
         AVEVOL  2.5929640507955100E+004
         AVECELL_A  2.9598213501547921E+001
         AVECELL_B  2.9598213501547921E+001
         AVECELL_C  2.9598213501547921E+001
         AVEALPHA  9.0000000000000000E+001
         AVEBETA  9.0000000000000000E+001
         AVEGAMMA  9.0000000000000000E+001
         AVE_ECONS  3.9616646636816311E-001
         AVE_PRESS  0.0000000000000000E+000
         AVE_PXX  0.0000000000000000E+000
       &END RESTART_AVERAGES
     &END AVERAGES
   &END MD
   &DRIVER
     UNIX T
     PORT 8421
     HOST "/tmp/ipi_cp2k"
     SLEEP_TIME  1.0000000000000001E-001
   &END DRIVER
   &PRINT
     &TRAJECTORY SILENT
       UNIT "angstrom"
       FORMAT XMOL
       &EACH
         MD 1
       &END EACH
     &END TRAJECTORY
     &VELOCITIES ON
       &EACH
         MD 1
       &END EACH
     &END VELOCITIES
     &FORCES ON
     &END FORCES
     &RESTART_HISTORY SILENT
       &EACH
         MD 10000
       &END EACH
     &END RESTART_HISTORY
   &END PRINT
 &END MOTION
 &MULTIPLE_FORCE_EVALS
   FORCE_EVAL_ORDER 1..3
   MULTIPLE_SUBSYS T
 &END MULTIPLE_FORCE_EVALS
 &FORCE_EVAL
   METHOD MIXED
   &MIXED
     MIXING_TYPE GENMIX
     GROUP_PARTITION 16 1
     NGROUPS 2
     &GENERIC
       MIXING_FUNCTION a+b
       VARIABLES "a" "b"
     &END GENERIC
   &END MIXED
   &SUBSYS
     &CELL
       A  1.5662700000000001E+001  0.0000000000000000E+000  0.0000000000000000E+000
       B  0.0000000000000000E+000  1.5662700000000001E+001  0.0000000000000000E+000
       C  0.0000000000000000E+000  0.0000000000000000E+000  1.5662700000000001E+001
       MULTIPLE_UNIT_CELL 1 1 1
     &END CELL
     &COORD
       O  5.9155813208176390E+001  6.7077401524830137E+001 -3.9604010620319059E+001
       H  5.8409656040969040E+001  6.6498502320391609E+001 -3.9483955134394741E+001
       H  5.9375683943133005E+001  6.7414279042303917E+001 -3.8680068887024653E+001
       O  7.0467424627229292E+001  1.0016136414998307E+002  6.8291501974292615E+001
       H  6.9771857369810490E+001  1.0079617474193388E+002  6.8552473135438191E+001
       H  7.0462599083239411E+001  9.9444598900246675E+001  6.8926764619697039E+001
       O  5.7457230806727900E+001  1.0926844882798463E+002  1.5684338233430738E+001
       H  5.7933553746407000E+001  1.0936449108939320E+002  1.6504704024011378E+001
       H  5.7205020057636091E+001  1.1021337765969270E+002  1.5516651903983886E+001
       O  1.7266599300235467E+002  1.0018603141711772E+002  5.5723104837407838E+001
       H  1.7340194305489067E+002  1.0072282740345089E+002  5.6196752070463106E+001
       H  1.7242227104418060E+002  9.9515764152178718E+001  5.6392399786092220E+001
       O  9.5605750319659023E+001  8.5035666261251919E+001 -1.4589176552877138E+001
       H  9.5416461167605121E+001  8.5071000163874061E+001 -1.3648705821799449E+001
       H  9.5048629050207126E+001  8.4366193565793296E+001 -1.4945941598093427E+001
       O  8.3497954731548504E+001  1.3695985530157017E+002 -1.5288701532968348E+001
       H  8.2588749965427496E+001  1.3695500866403069E+002 -1.4954443900681742E+001
       H  8.3939973975200772E+001  1.3622560748394696E+002 -1.4829359413915164E+001
       O  9.5305873754087980E+000  1.6945083047037568E+002  1.0893699542197453E+001
       H  9.7791864453100938E+000  1.6854962964024131E+002  1.1252186064849960E+001
       H  9.9387610669866913E+000  1.7015937194255437E+002  1.1413595177809603E+001
       O  3.9538615978601399E+001  1.5440827735791589E+002 -1.4707995002505216E-002
       H  4.0463491703221599E+001  1.5477664723885735E+002 -8.4932644835717622E-002
       H  3.9215964710666874E+001  1.5449543933004625E+002  8.9005556235578964E-001
       O  1.0119792644584123E+002  1.6100325986385502E+002  3.6368338755438523E+000
       H  1.0038392214133438E+002  1.6048777318369122E+002  4.0620688630601176E+000
       H  1.0143318500658835E+002  1.6171920696316226E+002  4.2729412196312753E+000
       O  9.0228218068531049E+001  2.2362944643796953E+002  5.0257503653504898E+001
       H  8.9452446148972570E+001  2.2422554310187908E+002  5.0466684434559632E+001
       H  9.0187152307408368E+001  2.2299864782750060E+002  5.0953442220360785E+001
       O  7.4504808102612969E+001  1.6481075805427162E+002 -1.2696459786659434E+001
       H  7.3727334083383795E+001  1.6436743383230427E+002 -1.2347763148642592E+001
       H  7.5247492944965401E+001  1.6443368354004394E+002 -1.2158644575770516E+001
       O  4.4038512453817745E+001  8.9453200678587208E+001 -9.7167871441431899E+000
       H  4.4012599233998273E+001  9.0379288002560557E+001 -9.3899447542148238E+000
       H  4.3202956245991722E+001  8.9096989442335783E+001 -9.2841441653173735E+000
       O  8.4522414542520696E+000  1.9627820963775406E+002  1.8073878291905483E+001
       H  7.5317606766220093E+000  1.9608220164075900E+002  1.8323821509766340E+001
       H  8.8431942901338765E+000  1.9674682356979500E+002  1.8820680160731264E+001
       O  9.8209702266436352E+001  2.2394538486921718E+002  6.3432346097198335E+000
       H  9.7217027231002618E+001  2.2386962643532635E+002  6.5106270970886895E+000
       H  9.8526636082498982E+001  2.2410085693250213E+002  7.2511298261239574E+000
       O  5.3228812816806887E+001  1.2474205018466753E+002 -1.2777358369097400E+000
       H  5.2983968840085673E+001  1.2525956896368722E+002 -4.9191758651829925E-001
       H  5.3862609225656087E+001  1.2405336605369897E+002 -9.8536053723571571E-001
       O  8.9907321098676846E+001  1.7420351635046450E+002 -1.7832948680231627E+001
       H  9.0577632285962352E+001  1.7375801161189105E+002 -1.7400485134352127E+001
       H  8.9270050585142030E+001  1.7353207751395425E+002 -1.8135826900431422E+001
       O  4.5033723739593128E+001  1.0915192060720206E+002  2.8686995050412740E+001
       H  4.4699814382161506E+001  1.0823068267908828E+002  2.8831724443423216E+001
       H  4.6006157835144137E+001  1.0891400162373024E+002  2.8789043974432712E+001
       O  5.0486147533683003E+001  1.6997636654119162E+002  1.9159517277821628E+001
       H  5.0618777701035967E+001  1.7081542258334915E+002  1.9812358686060698E+001
       H  4.9612448452799796E+001  1.6976561560311316E+002  1.9583382869300326E+001
       O  9.9769982968841560E+001  1.2053428055893107E+002  2.8862833087990246E+001
       H  9.9582583220552763E+001  1.2097325036758870E+002  2.9729585433140919E+001
       H  1.0028547351332256E+002  1.2123545319406021E+002  2.8307288654767525E+001
       O  6.9428578433273884E+001  1.0676105177646448E+002  1.0530147906965765E+002
       H  6.9071738301071591E+001  1.0763686968654028E+002  1.0556590455223417E+002
       H  7.0357215880309624E+001  1.0688261607257705E+002  1.0524633174958583E+002
       O  3.1729921152772089E+001  1.2383637567385736E+002  1.6455310049693704E+001
       H  3.2236038479511933E+001  1.2456710862147419E+002  1.6922480216621800E+001
       H  3.1739280429737860E+001  1.2414898413314000E+002  1.5499960603216701E+001
       O  3.5238163445266373E+001  1.1394591005420733E+002 -4.6615666533718098E+001
       H  3.4569612259679900E+001  1.1440665461480123E+002 -4.6066124740470592E+001
       H  3.4890809037109520E+001  1.1301885604728609E+002 -4.6610946249763977E+001
       O  7.2618554407614511E+001  1.5082775620522673E+002  5.8263384468419360E+001
       H  7.2925680764095290E+001  1.5072523048836126E+002  5.9256547459362949E+001
       H  7.3434840264695424E+001  1.5049361060332924E+002  5.7850266228989973E+001
       O  1.0361539839679425E+001  1.4022913705871420E+002  1.2547270987476230E+001
       H  1.0561053658269438E+001  1.3978052942429957E+002  1.3370641450894894E+001
       H  9.5858815614105790E+000  1.4088245106547825E+002  1.2707564729326323E+001
       O  4.7504896749885162E+001  1.1975762317459703E+002  9.0903176961053589E+000
       H  4.6924325166232038E+001  1.1994767950249177E+002  9.8346641330504063E+000
       H  4.8326151194126631E+001  1.1940970569415465E+002  9.5507528208368591E+000
       O  1.4515810091338482E+001  1.0919628806349148E+002 -5.7706593967613315E+000
       H  1.5221077661322269E+001  1.0993643352881394E+002 -5.6605523100960804E+000
       H  1.4200594651769125E+001  1.0882275064268596E+002 -4.8918725014206244E+000
       O  1.4192130990292532E+002  1.3286578528974874E+002 -6.4643004153044359E+001
       H  1.4179334406172416E+002  1.3368793681871011E+002 -6.4182795622318011E+001
       H  1.4119671505646286E+002  1.3284217878835796E+002 -6.5318332426899929E+001
       O  3.7407964101374638E+001  1.2628605747795943E+002 -3.0318974048008126E+001
       H  3.7979882272707762E+001  1.2708292479086957E+002 -3.0144649435153571E+001
       H  3.7695750240277448E+001  1.2549665441320526E+002 -2.9828098703736533E+001
       O  7.4973404615179490E+001  1.3794092738895372E+002  2.8991015503419394E+001
       H  7.5616615164216654E+001  1.3726050501788438E+002  2.9379638509730988E+001
       H  7.4872859005870041E+001  1.3772064082195797E+002  2.8062125016361382E+001
       O  8.6125990998119292E+001  1.3547979215780563E+002  7.0659819012779392E+000
       H  8.6216010320858786E+001  1.3492424483483742E+002  7.9447059353514788E+000
       H  8.5899470300027048E+001  1.3639921566734122E+002  7.0961017742145902E+000
       O  4.4790995042608898E+001  1.5724288357860712E+002  5.2771666026056650E+001
       H  4.4081649057718131E+001  1.5692315689450177E+002  5.3336504384718630E+001
       H  4.5084591087310997E+001  1.5816254278650075E+002  5.3181744991613890E+001
       O  1.5983540079196322E+001  1.3005326165961898E+002 -5.1588378932144618E-001
       H  1.6241798580145002E+001  1.2919562217272235E+002 -6.8595342482097166E-001
       H  1.5984243676819389E+001  1.3046843732267865E+002 -1.3757464803344697E+000
       O  1.0831382415612879E+002  1.1299259254678167E+002  2.1757146009941454E+001
       H  1.0752391056413869E+002  1.1330904003695440E+002  2.2235807581812441E+001
       H  1.0905698855359033E+002  1.1309332594462757E+002  2.2406906481016229E+001
       O  6.4841718407989902E+001  1.1927876806258250E+002 -1.3114445038460603E+001
       H  6.5603349791414317E+001  1.1874188817276328E+002 -1.2797583561146723E+001
       H  6.4519297814690063E+001  1.1966715210801499E+002 -1.2267830845403495E+001
       O  8.8946382055139622E+001  1.3477684449851654E+002 -1.7529394021027447E+000
       H  8.8357307957859803E+001  1.3536750489041245E+002 -1.2121444333665552E+000
       H  8.8732976545989487E+001  1.3388966759906620E+002 -1.3652009848868842E+000
       O  4.7447337796292437E+001  1.8316185252919465E+002  2.9847748409577953E+001
       H  4.8081366389451979E+001  1.8356868606862136E+002  3.0471917328660094E+001
       H  4.6641114849713937E+001  1.8304499242050613E+002  3.0428210925455449E+001
       O  1.2243407098774544E+002  1.7268832547214220E+002  4.8572138998264066E+001
       H  1.2308767611020771E+002  1.7336715645966049E+002  4.8335727511916510E+001
       H  1.2295062000914653E+002  1.7195584918694797E+002  4.8995991496530067E+001
       O  1.2615053872287963E+002  1.7753406118368679E+002 -8.1908257936741322E+001
       H  1.2548121264047889E+002  1.7704998758134394E+002 -8.2321244347715904E+001
       H  1.2670336696137191E+002  1.7688800474494656E+002 -8.1466499988229117E+001
       O  2.8360595657131469E+001  1.4491998272367059E+002  1.6553424629195476E+001
       H  2.8498979876801162E+001  1.4585636077440986E+002  1.6411539468799912E+001
       H  2.8103860892770019E+001  1.4499834887156891E+002  1.7509914226103334E+001
       O  9.3780433530753783E+001  1.0548803110180529E+002  5.8597461878166264E+001
       H  9.4005256298334331E+001  1.0522387415201999E+002  5.9566940101249166E+001
       H  9.4627730016789926E+001  1.0568018202558817E+002  5.8214535895190878E+001
       O  1.1207062508954257E+002  1.5665511093544112E+002  3.3231936835757672E+001
       H  1.1187194300089497E+002  1.5718091924224086E+002  3.4117532607695018E+001
       H  1.1251328528453624E+002  1.5583469048800634E+002  3.3455399919530343E+001
       O  6.5790707754398539E+001  1.5500285622448854E+002  7.6667140763752455E+000
       H  6.6659936968410676E+001  1.5477622614496423E+002  8.0677218873855168E+000
       H  6.5178219416330450E+001  1.5465648611235309E+002  8.3244193671951159E+000
       O  3.8263725329288768E+001  9.4648370069809218E+001  4.1278861503064633E+001
       H  3.7579152203766284E+001  9.3998670710784424E+001  4.1478221705462424E+001
       H  3.8740505940681942E+001  9.4690502333073212E+001  4.2134108029187786E+001
       O  8.4796142553641062E+001  1.1311709621888330E+002  9.4549239941427352E+000
       H  8.5201864099200662E+001  1.1384030247562625E+002  9.9862098002703199E+000
       H  8.4996150249924284E+001  1.1225275864159532E+002  9.7741318169628872E+000
       O  8.6580048397198027E+001  1.2016225999586283E+002  3.0945516423735359E+001
       H  8.6815605581345523E+001  1.2106007806346908E+002  3.1376746265905570E+001
       H  8.6594145504360938E+001  1.1947904551141713E+002  3.1612477337503577E+001
       O  7.9995253654643776E+001  1.2650972078328023E+002  5.1207043986325431E+001
       H  7.9401752411108134E+001  1.2584230232028817E+002  5.1631230595467116E+001
       H  8.0500114825154512E+001  1.2670045780760127E+002  5.2055169429371766E+001
       O  1.7118321287502638E+001  8.2993542440689168E+001  5.3373046684979599E+001
       H  1.6751982459326658E+001  8.3428640723860994E+001  5.2607284827497132E+001
       H  1.6740915934694360E+001  8.3440688898673230E+001  5.4171371100667372E+001
       O  1.1045994482096457E+002  1.7402561614997180E+002  9.6168421467230285E+000
       H  1.1125443259346710E+002  1.7371908263812691E+002  1.0064991212926577E+001
       H  1.1068242968097645E+002  1.7385092814246386E+002  8.7135302948215614E+000
       O  5.8832070196376883E+001  1.7257252402802055E+002  5.7421726388346954E+001
       H  5.8585877220160675E+001  1.7207846421953585E+002  5.8256840601185104E+001
       H  5.9784535100747249E+001  1.7235182130270385E+002  5.7274846278442197E+001
       O  7.5941829082223947E+001  8.8055585537927072E+001  1.4345845991949989E+001
       H  7.6221165399456510E+001  8.7396331542342907E+001  1.4960810327556155E+001
       H  7.5021337503571118E+001  8.7745485429048273E+001  1.4307948795168775E+001
       O  8.6554233569491046E+001  1.1029904323125477E+002  7.2967280514493016E+000
       H  8.6196237073054149E+001  1.0936808772797400E+002  7.2964948786800949E+000
       H  8.6156505546830928E+001  1.1057634328772097E+002  8.1407607495050964E+000
       O  1.2273418989239691E+002  1.3247095083711372E+002  7.8804212523386312E+001
       H  1.2352788045181028E+002  1.3282813853919450E+002  7.9139467439859231E+001
       H  1.2194705412751077E+002  1.3283567672831632E+002  7.9325029162070749E+001
       O  7.3800535784260418E+001  1.7969625223048166E+002 -2.4897647154921664E+001
       H  7.3310132778738975E+001  1.7928268177067631E+002 -2.4178682367625285E+001
       H  7.4774705324139205E+001  1.7963543122944964E+002 -2.4704544085550463E+001
       O  4.3730808510667821E+001  1.3130421433795038E+002  9.7525243570277418E+000
       H  4.3242024589946112E+001  1.3100155207297220E+002  1.0523927593491784E+001
       H  4.4560303466871289E+001  1.3164631898521287E+002  1.0110877178472986E+001
       O  1.3029398500531428E+002  1.2471884127646453E+002 -3.6248795001662102E+000
       H  1.3057921372198246E+002  1.2484105077559381E+002 -2.6621489686309596E+000
       H  1.2987996990903005E+002  1.2385827203909807E+002 -3.6404063630947725E+000
       O  7.0031881452824678E+001  9.7508296792538445E+001 -2.2386977564418324E+000
       H  6.9213071419428289E+001  9.7953314876915243E+001 -2.0485050069494362E+000
       H  7.0719845858195910E+001  9.7987949076035449E+001 -1.6899579679006000E+000
       O  1.2919818830268710E+002  1.6507432520710350E+002  4.7108003847559452E+001
       H  1.2980456414565836E+002  1.6500344591706479E+002  4.7912895369565618E+001
       H  1.2853240695101871E+002  1.6440899695241831E+002  4.7373811132968598E+001
       O  1.0448648656104623E+002  7.5797257975858230E+001  5.5220352145812761E+001
       H  1.0400620388739971E+002  7.5921212090536457E+001  5.6106574334485252E+001
       H  1.0472167623385279E+002  7.6683155045494004E+001  5.4907849061109900E+001
       O  8.1095213046113273E+001  1.6052511932363117E+002 -2.8253491924491591E+001
       H  8.1214059513521136E+001  1.6144989143852524E+002 -2.8059223414792857E+001
       H  8.0112261568627787E+001  1.6046278875386380E+002 -2.8088322707545508E+001
       O  4.5103572738735430E+001  1.0049210082159600E+002  1.9838050949910595E+001
       H  4.4664588335044975E+001  9.9631430270280291E+001  1.9592580234248544E+001
       H  4.5126980078001523E+001  1.0047902981972562E+002  2.0877319423659863E+001
       O  1.3036520456562764E+002  1.5146782035084144E+002  1.9822709510533539E+001
       H  1.2986620174172850E+002  1.5227475913194672E+002  1.9581893097994556E+001
       H  1.3119569388471831E+002  1.5178201309200517E+002  2.0221471955944629E+001
       O  1.7935505737123105E+001  1.4791835785306367E+002  4.1971638395721790E+001
       H  1.7420894307102774E+001  1.4722072863655774E+002  4.2452791998880372E+001
       H  1.8621923342021269E+001  1.4738627002540289E+002  4.1630352930088435E+001
       O  1.0120228600872760E+002  7.0284328116426636E+001  2.9946432814392388E+001
       H  1.0040665130956945E+002  7.0474418031393583E+001  3.0516552719697515E+001
       H  1.0125124183151107E+002  7.1127700804779110E+001  2.9465203939157494E+001
       O  7.2737822001288549E+001  1.6132082171116147E+002  1.4344635775209166E+001
       H  7.2844559656159859E+001  1.6044074064773284E+002  1.4728179165025200E+001
       H  7.2542680528311109E+001  1.6201237199969447E+002  1.5045868681705642E+001
       O  2.0647019784554772E+001  1.2819426343596555E+002  2.0016292478470021E+001
       H  1.9841343112616126E+001  1.2861706071205288E+002  1.9581283864516777E+001
       H  2.0543125087377888E+001  1.2853368832163258E+002  2.0967696192024857E+001
       O  1.0427875827188934E+002  1.2796091536951702E+002  9.9554618472914491E+000
       H  1.0343170480807881E+002  1.2762345075422841E+002  9.8015713381508345E+000
       H  1.0484409467759642E+002  1.2716061338791268E+002  1.0084697463360232E+001
       O  1.0013334361430751E+002  1.4917598999257984E+002  5.3040942424002445E+001
       H  1.0076255224601140E+002  1.4990619465569955E+002  5.2979977155032415E+001
       H  9.9888709219279733E+001  1.4917683641273854E+002  5.3938854860923350E+001
       O  1.6478907857441740E+002  1.8900551730583277E+002  1.2221557610066374E+002
       H  1.6415753365323687E+002  1.8845081452569281E+002  1.2271566727867889E+002
       H  1.6454018769196520E+002  1.8989997517826217E+002  1.2257356262423525E+002
       O  1.5811551001966512E+002  1.2245832898916677E+002  5.6478414538901966E+001
       H  1.5722311248435608E+002  1.2283498442111534E+002  5.6517659797907505E+001
       H  1.5805864708852823E+002  1.2161054707268582E+002  5.6006132384760555E+001
       O  3.8162964540671638E+001  1.4475963418887181E+002  4.8068089795361317E+001
       H  3.8019448789309052E+001  1.4512518941252861E+002  4.8936657783071901E+001
       H  3.7288971380863337E+001  1.4465750140344269E+002  4.7721976016573457E+001
       O  4.6328016778077036E+001  1.4499275094985396E+002  2.5637634244341072E+001
       H  4.7009843275971498E+001  1.4425204737675335E+002  2.5510372990169799E+001
       H  4.5717375098914189E+001  1.4464531308371767E+002  2.6268375210538625E+001
       O  6.9141724734351513E+001  1.0807198360131682E+002 -1.3396827800861486E+001
       H  6.8362507939968054E+001  1.0749613957913753E+002 -1.3673746551611920E+001
       H  6.9484732776802076E+001  1.0758647750029145E+002 -1.2671072373090581E+001
       O  8.8664892472677067E+001  1.2134325624143860E+002  1.7789350417610205E+001
       H  8.8470868391344482E+001  1.2228157370963524E+002  1.8123654608648280E+001
       H  8.9625739359231787E+001  1.2116050688208212E+002  1.7972202851882525E+001
       O  1.3633767484363514E+002  1.2548568091288944E+002  3.9011437851058808E+001
       H  1.3648497426570188E+002  1.2550462320655923E+002  3.9963942572379061E+001
       H  1.3540651175702803E+002  1.2582155189240649E+002  3.8952552798618264E+001
       O  6.9856506966776294E+001  1.3758299106387517E+002  6.7127050235883885E+001
       H  7.0637050175520315E+001  1.3700895090247229E+002  6.7161821340019685E+001
       H  6.9919439936583018E+001  1.3810522732674994E+002  6.7930751655649559E+001
       O  6.4458985420234853E+001  9.1075889470976847E+001 -1.0045857728352710E+001
       H  6.5137835186410257E+001  9.1438746052354716E+001 -9.4355156390893438E+000
       H  6.3815075102816031E+001  9.1738178639861886E+001 -9.9995553105777475E+000
       O  6.1151891967713006E+001  2.1653312226256196E+002  7.8541545779208137E+000
       H  6.0580857530523687E+001  2.1624744852476542E+002  8.5837864101668373E+000
       H  6.1315499680180494E+001  2.1748305166923757E+002  8.0831797208570944E+000
       O  8.2776950140628628E+001  1.2003527912337225E+002  3.9094481880573589E+001
       H  8.2230703519639178E+001  1.1971486125723885E+002  3.9915210284442281E+001
       H  8.2063244307380003E+001  1.2045637981036958E+002  3.8583502998431122E+001
       O  9.9475965543147822E+001  2.1634130809488258E+002 -3.8162470775794034E+001
       H  9.9107116731177030E+001  2.1543407224384669E+002 -3.8389102782429106E+001
       H  9.9688201921438122E+001  2.1616712428001065E+002 -3.7200036741796481E+001
       O  1.1374576622310892E+002  1.1598341086287712E+002 -1.1556515792601555E+001
       H  1.1391710097149776E+002  1.1539463794496936E+002 -1.0798076151314163E+001
       H  1.1327070097252590E+002  1.1676361020917619E+002 -1.1187883107330345E+001
       O  1.4034402888000915E+002  1.6614300963275383E+002 -1.4575840498781316E+001
       H  1.4128243806358941E+002  1.6600168577086419E+002 -1.4307493577684470E+001
       H  1.3996260305009741E+002  1.6661520077804312E+002 -1.3791207277237190E+001
       O  9.1275634665865823E+001  1.1532190838364615E+002  7.6337266700456823E+001
       H  9.1368466297897669E+001  1.1582507918196004E+002  7.7177983765942614E+001
       H  9.0406853660924270E+001  1.1495644333121163E+002  7.6555378804195954E+001
       O  6.7194387853598485E+001  1.6146499621947513E+002 -2.0162470448413541E+000
       H  6.7136236714238663E+001  1.6239203061579298E+002 -2.2790439002747913E+000
       H  6.6970352686409200E+001  1.6147518541567447E+002 -1.0031700881876398E+000
       O  6.5681842700655992E+001  1.6506684674307493E+002 -2.5707091105478284E+001
       H  6.5070207305311385E+001  1.6580368007230427E+002 -2.5916877051538311E+001
       H  6.6560032377085946E+001  1.6548030355005281E+002 -2.5610740688952632E+001
       O  8.2620563403593010E+001  8.3767388578754037E+001  4.0532283834054262E+001
       H  8.3432154751550456E+001  8.4230567572083061E+001  4.0832769080286646E+001
       H  8.2934299697563461E+001  8.2845606330714432E+001  4.0631907754367077E+001
       O  1.5111181161799399E+002  1.4684370803075112E+002  5.1337801433495926E+001
       H  1.5022786643531981E+002  1.4692104997548626E+002  5.1787036823057079E+001
       H  1.5165479496896788E+002  1.4731214449669756E+002  5.1977555909308634E+001
       O  5.5530773438077475E+001  8.2593203988292117E+001  7.3917404985423918E+000
       H  5.5927904897192313E+001  8.3381026648288795E+001  7.9058841518944440E+000
       H  5.4960621785119216E+001  8.2190642456448373E+001  8.0429668133940968E+000
       O  7.2278345103338737E+001  1.3187127966286326E+002  5.5491831200566494E+001
       H  7.1654167555607131E+001  1.3254350029235076E+002  5.5846500096791743E+001
       H  7.2912804990449359E+001  1.3155012418003125E+002  5.6087904470810827E+001
       O  8.2468544121388362E+001  1.7984757422540144E+002  1.3243611169179164E+001
       H  8.2446101785945700E+001  1.8022116055970471E+002  1.4152253585094542E+001
       H  8.1582301966620065E+001  1.7972770643147564E+002  1.2974012698551681E+001
       O  9.6709160881467255E+001  9.7280116925383652E+001  1.2517471586563415E+001
       H  9.6405085907332946E+001  9.6813357096581925E+001  1.3327500226127961E+001
       H  9.7414318829863902E+001  9.7827820221528128E+001  1.2859099210611902E+001
       O  9.2445550382126839E+001  1.0206319152007364E+002  7.4697587170348726E+001
       H  9.1932192265027936E+001  1.0131398303677075E+002  7.5021189458120602E+001
       H  9.2121926075099083E+001  1.0291939733698911E+002  7.5109676896124000E+001
       O  5.1191664317842495E+001  1.2750162457408459E+002  3.9930751610028658E+001
       H  5.2013223205813176E+001  1.2798238077609366E+002  3.9931886627010549E+001
       H  5.1227694603259081E+001  1.2700153801189487E+002  4.0778096541907594E+001
       O  7.0848895192708085E+001  1.1839767897461638E+002 -6.3663772714157743E+000
       H  7.1363417878463864E+001  1.1891084676051543E+002 -5.6498869347392695E+000
       H  7.0023435721685999E+001  1.1812002051602512E+002 -5.9590137426498897E+000
       O  2.9319752541297522E+001  1.2873256821948786E+002  4.3818935551243975E+001
       H  2.9319276542671076E+001  1.2934070620414238E+002  4.4543870242847809E+001
       H  2.8532356845908911E+001  1.2818894546419378E+002  4.3930856389451101E+001
       O  7.0340765927339788E+001  1.7003503701616754E+002  2.2979205655550530E+001
       H  6.9646199675291015E+001  1.6962719217078711E+002  2.3544179195310431E+001
       H  7.1224241630643547E+001  1.6970589866405291E+002  2.3246134135687772E+001
       O  9.6553632626646760E+001  1.1084691338160054E+002  3.8061620606051228E+001
       H  9.7199743452781519E+001  1.1012205663138955E+002  3.8189033707962352E+001
       H  9.7064668051247693E+001  1.1155947454508951E+002  3.8468879073077716E+001
       O  5.6235888586275578E+001  1.6714246266574986E+002  4.2325288087153563E+000
       H  5.6856906257588328E+001  1.6716497459597358E+002  4.9630740807580587E+000
       H  5.6738000495897900E+001  1.6747491138762632E+002  3.4092174433671030E+000
       O  1.0384146377444657E+002  6.1291252529656653E+001  5.0450455011300697E+001
       H  1.0292407701599153E+002  6.1516726743786741E+001  5.0780969479713768E+001
       H  1.0432439077843992E+002  6.2077639671906198E+001  5.0742140776820619E+001
       O  1.0544489877619182E+002  1.4231295730356109E+002 -1.1757872790302853E+001
       H  1.0590964537705474E+002  1.4207082311796526E+002 -1.2603201442300145E+001
       H  1.0609029658086682E+002  1.4199235504800183E+002 -1.1106458891727025E+001
       O  5.9945304358117234E+001  1.9870414842915935E+002 -1.2596206696765744E+001
       H  5.9493005117766380E+001  1.9781222441706609E+002 -1.2610755008161684E+001
       H  5.9878764643188518E+001  1.9898778193205328E+002 -1.1642698862753479E+001
       O  9.1399091920479094E+001  1.5283525591648694E+002  1.0370926637293289E+001
       H  9.1151180809230425E+001  1.5194914801666388E+002  1.0130075516017300E+001
       H  9.2282900556180962E+001  1.5273770412382441E+002  1.0840913545089494E+001
       O  4.7906316713275778E+001  1.4004229099392407E+002  7.5795453053522721E+001
       H  4.8618161006428643E+001  1.3944783902738700E+002  7.5505202254700691E+001
       H  4.8071560209159777E+001  1.4096475148449724E+002  7.5603371873600693E+001
       O  8.0598648306000285E+001  1.3700390215478274E+002 -1.5202848166354205E+001
       H  8.0433684575442598E+001  1.3621065763738386E+002 -1.4626072038994595E+001
       H  8.0379347925066398E+001  1.3784406614266263E+002 -1.4845582419005597E+001
       O  7.9195832754036175E+001  1.9431232894740987E+002  4.0574934849545823E+000
       H  7.8221108103712965E+001  1.9428134318431827E+002  3.8904410511242626E+000
       H  7.9271610755904618E+001  1.9514566182528552E+002  4.5536056106677103E+000
       O  7.7436038062311326E+001  1.9005059760091186E+002  6.3519622103313559E+001
       H  7.7915974877869175E+001  1.9045679270815623E+002  6.4280096362864072E+001
       H  7.6752519529748483E+001  1.9071749324490963E+002  6.3298737943700196E+001
       O  6.2733935883349346E+001  1.2845605223774993E+002  3.4871844534369849E+001
       H  6.2060601915486345E+001  1.2877753565840104E+002  3.5493243208560550E+001
       H  6.3080453440123549E+001  1.2767699063187467E+002  3.5397137066971659E+001
       O  4.5277711749342345E+001  1.3234034205207030E+002  6.9680329469734419E+000
       H  4.5866377150497804E+001  1.3199909778730597E+002  7.7227123806647073E+000
       H  4.5642804737172440E+001  1.3321119997010732E+002  6.8491704126638089E+000
       O  9.7350209509390055E+001  1.8273661191828745E+002  7.5064430062878941E+001
       H  9.8341008578513794E+001  1.8287641118288522E+002  7.5279304182034949E+001